data/mip_solutions/furman_sahinidis/transportation/7sp-s1_cplex.sol
Elapsed time: 0.0203921794891
Nodes explored: 0
Upper bound: 10.0
Lower bound: 10.0
y[0,0]=1
y[1,0]=1
y[1,1]=1
y[2,0]=1
y[2,1]=1
y[3,0]=1
y[3,1]=1
y[4,0]=1
y[5,0]=1
y[6,0]=1
q[0,6,0,6]=5831.6
q[1,4,0,4]=14.3
q[1,4,0,6]=2253.7
q[1,5,0,5]=3693.6
q[1,6,0,6]=3952.8
q[1,7,1,7]=648.0
q[2,5,0,5]=3568.2
q[2,6,0,6]=3818.6
q[2,7,1,7]=626.0
q[3,2,0,2]=4656.3
q[3,3,0,3]=3927.0
q[3,4,0,4]=1963.5
q[3,5,0,5]=3197.7
q[3,6,0,6]=3422.1
q[3,7,1,7]=561.0
q[4,3,0,3]=2888.1
q[4,3,0,4]=5189.9
q[4,4,0,5]=4039.0
q[4,5,0,5]=6577.8
q[4,6,0,6]=5885.4
q[5,1,0,1]=12760.4
q[5,2,0,4]=12887.3
q[5,2,0,5]=1621.1
q[5,3,0,3]=12236.0
q[5,4,0,6]=6118.0
q[5,5,0,5]=9963.6
q[5,6,0,6]=3670.8
q[6,0,0,1]=18181.6
q[6,0,0,2]=42902.7
q[6,0,0,3]=21058.9
