data/mip_solutions/furman_sahinidis/transportation/7sp-s1_cplex.log

Log started (V12.6.3.0) Tue Jun  6 16:47:36 2017

New value for default parallel thread count: 1

Problem '/tmp/tmptiGcgV.pyomo.lp' read.
Read time = 0.00 sec. (0.08 ticks)

Problem name         : /tmp/tmptiGcgV.pyomo.lp
Objective sense      : Minimize
Variables            :     912  [Nneg: 897,  Binary: 14,  General Integer: 1]
Objective nonzeros   :       1
Linear constraints   :     480  [Less: 14,  Equal: 466]
  Nonzeros           :    3106
  RHS nonzeros       :      33

Variables            : Min LB: 0.000000         Max UB: 1.000000       
Objective nonzeros   : Min   : 1.000000         Max   : 1.000000       
Linear constraints   :
  Nonzeros           : Min   : 1.000000         Max   : 82143.20       
  RHS nonzeros       : Min   : 1.000000         Max   : 82143.20       
Tried aggregator 2 times.
MIP Presolve eliminated 458 rows and 861 columns.
MIP Presolve added 1 rows and 1 columns.
MIP Presolve modified 40 coefficients.
Aggregator did 8 substitutions.
Reduced MIP has 15 rows, 44 columns, and 88 nonzeros.
Reduced MIP has 0 binaries, 0 generals, 0 SOSs, and 0 indicators.
Presolve time = 0.00 sec. (0.78 ticks)
Tried aggregator 1 time.
Reduced MIP has 15 rows, 44 columns, and 88 nonzeros.
Reduced MIP has 0 binaries, 0 generals, 0 SOSs, and 0 indicators.
Presolve time = 0.00 sec. (0.04 ticks)
MIP emphasis: balance optimality and feasibility.
MIP search method: dynamic search.
Parallel mode: none, using 1 thread.
Root relaxation solution time = 0.00 sec. (0.02 ticks)

        Nodes                                         Cuts/
   Node  Left     Objective  IInf  Best Integer    Best Bound    ItCnt     Gap

*     0     0      integral     0       10.0000       10.0000        4    0.00%
Elapsed time = 0.00 sec. (1.07 ticks, tree = 0.00 MB, solutions = 1)

Root node processing (before b&c):
  Real time             =    0.00 sec. (1.10 ticks)
Sequential b&c:
  Real time             =    0.00 sec. (0.00 ticks)
                          ------------
Total (root+branch&cut) =    0.00 sec. (1.10 ticks)

Solution pool: 1 solution saved.

MIP - Integer optimal solution:  Objective =  1.0000000000e+01
Solution time =    0.00 sec.  Iterations = 4  Nodes = 0
Deterministic time = 1.10 ticks  (502.34 ticks/sec)


Incumbent solution written to file '/tmp/tmpFRSr4t.cplex.sol'.

Log started (V12.6.3.0) Mon Jul 24 16:46:06 2017

New value for default parallel thread count: 1

Problem '/tmp/tmpuBbgbV.pyomo.lp' read.
Read time = 0.00 sec. (0.08 ticks)

Problem name         : /tmp/tmpuBbgbV.pyomo.lp
Objective sense      : Minimize
Variables            :     912  [Nneg: 897,  Binary: 14,  General Integer: 1]
Objective nonzeros   :       1
Linear constraints   :     480  [Less: 14,  Equal: 466]
  Nonzeros           :    3106
  RHS nonzeros       :      33

Variables            : Min LB: 0.000000         Max UB: 1.000000       
Objective nonzeros   : Min   : 1.000000         Max   : 1.000000       
Linear constraints   :
  Nonzeros           : Min   : 1.000000         Max   : 82143.20       
  RHS nonzeros       : Min   : 1.000000         Max   : 82143.20       
Tried aggregator 2 times.
MIP Presolve eliminated 458 rows and 861 columns.
MIP Presolve added 1 rows and 1 columns.
MIP Presolve modified 40 coefficients.
Aggregator did 8 substitutions.
Reduced MIP has 15 rows, 44 columns, and 88 nonzeros.
Reduced MIP has 0 binaries, 0 generals, 0 SOSs, and 0 indicators.
Presolve time = 0.00 sec. (0.78 ticks)
Tried aggregator 1 time.
Reduced MIP has 15 rows, 44 columns, and 88 nonzeros.
Reduced MIP has 0 binaries, 0 generals, 0 SOSs, and 0 indicators.
Presolve time = 0.00 sec. (0.04 ticks)
MIP emphasis: balance optimality and feasibility.
MIP search method: dynamic search.
Parallel mode: none, using 1 thread.
Root relaxation solution time = 0.00 sec. (0.02 ticks)

        Nodes                                         Cuts/
   Node  Left     Objective  IInf  Best Integer    Best Bound    ItCnt     Gap

*     0     0      integral     0       10.0000       10.0000        4    0.00%
Elapsed time = 0.00 sec. (1.07 ticks, tree = 0.00 MB, solutions = 1)

Root node processing (before b&c):
  Real time             =    0.00 sec. (1.10 ticks)
Sequential b&c:
  Real time             =    0.00 sec. (0.00 ticks)
                          ------------
Total (root+branch&cut) =    0.00 sec. (1.10 ticks)

Solution pool: 1 solution saved.

MIP - Integer optimal solution:  Objective =  1.0000000000e+01
Solution time =    0.00 sec.  Iterations = 4  Nodes = 0
Deterministic time = 1.10 ticks  (584.73 ticks/sec)


Incumbent solution written to file '/tmp/tmpKWfUBM.cplex.sol'.

Log started (V12.6.3.0) Mon Jul 24 16:58:59 2017

New value for default parallel thread count: 1

Problem '/tmp/tmpyrPtJg.pyomo.lp' read.
Read time = 0.00 sec. (0.08 ticks)

Problem name         : /tmp/tmpyrPtJg.pyomo.lp
Objective sense      : Minimize
Variables            :     912  [Nneg: 897,  Binary: 14,  General Integer: 1]
Objective nonzeros   :       1
Linear constraints   :     480  [Less: 14,  Equal: 466]
  Nonzeros           :    3106
  RHS nonzeros       :      33

Variables            : Min LB: 0.000000         Max UB: 1.000000       
Objective nonzeros   : Min   : 1.000000         Max   : 1.000000       
Linear constraints   :
  Nonzeros           : Min   : 1.000000         Max   : 82143.20       
  RHS nonzeros       : Min   : 1.000000         Max   : 82143.20       
Tried aggregator 2 times.
MIP Presolve eliminated 458 rows and 861 columns.
MIP Presolve added 1 rows and 1 columns.
MIP Presolve modified 40 coefficients.
Aggregator did 8 substitutions.
Reduced MIP has 15 rows, 44 columns, and 88 nonzeros.
Reduced MIP has 0 binaries, 0 generals, 0 SOSs, and 0 indicators.
Presolve time = 0.00 sec. (0.78 ticks)
Tried aggregator 1 time.
Reduced MIP has 15 rows, 44 columns, and 88 nonzeros.
Reduced MIP has 0 binaries, 0 generals, 0 SOSs, and 0 indicators.
Presolve time = 0.00 sec. (0.04 ticks)
MIP emphasis: balance optimality and feasibility.
MIP search method: dynamic search.
Parallel mode: none, using 1 thread.
Root relaxation solution time = 0.00 sec. (0.02 ticks)

        Nodes                                         Cuts/
   Node  Left     Objective  IInf  Best Integer    Best Bound    ItCnt     Gap

*     0     0      integral     0       10.0000       10.0000        4    0.00%
Elapsed time = 0.00 sec. (1.07 ticks, tree = 0.00 MB, solutions = 1)

Root node processing (before b&c):
  Real time             =    0.00 sec. (1.10 ticks)
Sequential b&c:
  Real time             =    0.00 sec. (0.00 ticks)
                          ------------
Total (root+branch&cut) =    0.00 sec. (1.10 ticks)

Solution pool: 1 solution saved.

MIP - Integer optimal solution:  Objective =  1.0000000000e+01
Solution time =    0.00 sec.  Iterations = 4  Nodes = 0
Deterministic time = 1.10 ticks  (599.99 ticks/sec)


Incumbent solution written to file '/tmp/tmpHgHLvc.cplex.sol'.

Log started (V12.6.3.0) Wed Jul 26 16:03:18 2017

New value for default parallel thread count: 1

Problem '/tmp/tmpTOdPWh.pyomo.lp' read.
Read time = 0.00 sec. (0.08 ticks)

Problem name         : /tmp/tmpTOdPWh.pyomo.lp
Objective sense      : Minimize
Variables            :     912  [Nneg: 897,  Binary: 14,  General Integer: 1]
Objective nonzeros   :       1
Linear constraints   :     480  [Less: 14,  Equal: 466]
  Nonzeros           :    3106
  RHS nonzeros       :      33

Variables            : Min LB: 0.000000         Max UB: 1.000000       
Objective nonzeros   : Min   : 1.000000         Max   : 1.000000       
Linear constraints   :
  Nonzeros           : Min   : 1.000000         Max   : 82143.20       
  RHS nonzeros       : Min   : 1.000000         Max   : 82143.20       
Tried aggregator 2 times.
MIP Presolve eliminated 458 rows and 861 columns.
MIP Presolve added 1 rows and 1 columns.
MIP Presolve modified 40 coefficients.
Aggregator did 8 substitutions.
Reduced MIP has 15 rows, 44 columns, and 88 nonzeros.
Reduced MIP has 0 binaries, 0 generals, 0 SOSs, and 0 indicators.
Presolve time = 0.00 sec. (0.78 ticks)
Tried aggregator 1 time.
Reduced MIP has 15 rows, 44 columns, and 88 nonzeros.
Reduced MIP has 0 binaries, 0 generals, 0 SOSs, and 0 indicators.
Presolve time = 0.00 sec. (0.04 ticks)
MIP emphasis: balance optimality and feasibility.
MIP search method: dynamic search.
Parallel mode: none, using 1 thread.
Root relaxation solution time = 0.00 sec. (0.02 ticks)

        Nodes                                         Cuts/
   Node  Left     Objective  IInf  Best Integer    Best Bound    ItCnt     Gap

*     0     0      integral     0       10.0000       10.0000        4    0.00%
Elapsed time = 0.00 sec. (1.07 ticks, tree = 0.00 MB, solutions = 1)

Root node processing (before b&c):
  Real time             =    0.00 sec. (1.10 ticks)
Sequential b&c:
  Real time             =    0.00 sec. (0.00 ticks)
                          ------------
Total (root+branch&cut) =    0.00 sec. (1.10 ticks)

Solution pool: 1 solution saved.

MIP - Integer optimal solution:  Objective =  1.0000000000e+01
Solution time =    0.00 sec.  Iterations = 4  Nodes = 0
Deterministic time = 1.10 ticks  (625.24 ticks/sec)


Incumbent solution written to file '/tmp/tmpjehFFh.cplex.sol'.
